10 12
2 9 11 2 5 20 0 6 3 1 4 15 7 2 9 7 1 4 8 3 10 17 6 14
9 11 2 15 6 14 10 14 1 13 8 15 0 14 4 11 11 5 7 17 5 20 3 4
8 3 9 3 3 1 7 5 1 7 10 18 5 2 2 17 11 2 4 3 0 18 6 4
0 15 2 4 4 10 11 10 3 18 8 14 7 4 6 11 1 18 9 19 5 13 10 4
7 11 6 8 2 12 4 13 8 4 10 19 11 8 5 17 3 1 1 19 0 6 9 9
8 17 2 4 6 16 1 20 0 13 10 14 7 5 11 12 5 5 3 11 9 10 4 16
0 1 1 13 8 2 4 13 5 13 6 12 7 1 9 17 10 20 2 3 11 3 3 7
1 15 9 17 8 11 5 6 4 17 6 5 0 19 11 3 7 11 2 1 3 4 10 9
5 17 8 12 6 3 7 7 0 14 4 7 3 17 9 10 10 4 1 3 2 9 11 9
10 19 4 19 1 14 0 8 9 16 5 4 7 5 3 4 6 5 11 6 8 9 2 11
